c random cnf
p cnf 50 50
-11 -31 0
-7 -23 0
1 35 0
-18 43 0
-13 38 0
19 49 0
17 21 0
1 -13 0
8 -9 0
13 -36 0
-27 -40 0
11 -33 0
-27 35 0
27 49 0
1 -2 0
-38 -50 0
-6 21 0
19 -34 0
-9 -37 0
-15 22 0
-16 39 0
5 -24 0
-12 -24 0
30 -48 0
18 -35 0
-3 18 0
-6 -45 0
-21 -38 0
-26 27 0
-19 22 0
3 8 0
-28 -45 0
8 44 0
-2 -32 0
21 -42 0
-39 45 0
-24 -35 0
-26 -31 0
5 -48 0
6 39 0
23 -33 0
-22 34 0
5 15 0
12 33 0
-11 -39 0
24 -42 0
-38 -47 0
-3 38 0
-5 -50 0
-11 33 0
